HUN,8,6,77
5,7,1,83,4,100,2,66,0,84,3,94
5,16,1,86,2,10,0,92,4,39,3,54
5,7,2,60,4,71,1,38,0,55,3,81
2,16,4,81,3,47,0,47,5,83,1,61
3,33,5,9,2,48,4,22,1,63,0,70
1,46,3,73,4,79,0,48,2,59,5,4
3,93,5,61,4,48,0,59,2,67,1,74
4,60,2,13,5,66,0,80,3,32,1,64
